c 
c G(n,p) graph
c graph gen seed     : 128919
c number of vertices : 60
c max number of edges: 1770
c edge probability   : 0.200000
c data structure     : sparse
c
c           Graph Stats
c number of vertices  : 60
c nonisolated vertices: 60
c number of edges     : 381
c edge density        : 0.215254
c max degree          : 19
c avg degree          : 12.70
c min degree          : 4
p col 60 381
e 1 56
e 1 54
e 1 53
e 1 51
e 1 48
e 1 38
e 1 35
e 1 30
e 1 27
e 1 25
e 1 23
e 1 21
e 1 15
e 1 9
e 1 8
e 1 4
e 1 3
e 2 59
e 2 50
e 2 41
e 2 33
e 2 32
e 2 26
e 2 24
e 2 16
e 2 14
e 2 7
e 3 60
e 3 55
e 3 51
e 3 35
e 3 33
e 3 22
e 3 21
e 3 16
e 4 60
e 4 55
e 4 50
e 4 49
e 4 40
e 4 37
e 4 33
e 4 32
e 4 31
e 4 10
e 4 8
e 5 50
e 5 47
e 5 41
e 5 40
e 5 33
e 5 28
e 5 25
e 5 9
e 5 7
e 6 56
e 6 53
e 6 49
e 6 46
e 6 40
e 6 25
e 6 22
e 6 21
e 6 13
e 6 9
e 6 8
e 7 60
e 7 58
e 7 54
e 7 48
e 7 46
e 7 45
e 7 42
e 7 37
e 7 36
e 7 35
e 7 34
e 7 33
e 7 29
e 7 23
e 7 21
e 7 14
e 7 13
e 8 60
e 8 59
e 8 58
e 8 51
e 8 50
e 8 47
e 8 27
e 8 25
e 8 19
e 8 14
e 9 59
e 9 55
e 9 51
e 9 50
e 9 49
e 9 41
e 9 40
e 9 38
e 9 34
e 9 32
e 9 24
e 9 22
e 9 13
e 10 55
e 10 51
e 10 50
e 10 47
e 10 46
e 10 44
e 10 41
e 10 27
e 10 26
e 10 25
e 10 24
e 10 15
e 10 11
e 11 56
e 11 50
e 11 42
e 11 34
e 11 27
e 11 13
e 11 12
e 12 58
e 12 56
e 12 54
e 12 52
e 12 49
e 12 40
e 12 36
e 12 26
e 12 25
e 12 22
e 12 21
e 12 15
e 12 14
e 13 59
e 13 58
e 13 55
e 13 45
e 13 40
e 13 39
e 13 32
e 13 30
e 13 27
e 13 22
e 13 21
e 13 18
e 13 14
e 14 60
e 14 52
e 14 46
e 14 44
e 14 33
e 14 31
e 14 22
e 14 21
e 14 20
e 15 55
e 15 48
e 15 46
e 15 45
e 15 44
e 15 43
e 15 38
e 15 36
e 15 27
e 15 26
e 15 20
e 15 18
e 16 53
e 16 51
e 16 50
e 16 48
e 16 45
e 16 42
e 16 41
e 16 34
e 16 31
e 16 30
e 16 28
e 17 56
e 17 54
e 17 52
e 17 50
e 17 49
e 17 45
e 17 41
e 17 36
e 17 33
e 17 30
e 17 28
e 17 24
e 17 19
e 17 18
e 18 59
e 18 43
e 18 41
e 18 38
e 18 31
e 18 30
e 19 56
e 19 53
e 19 52
e 19 42
e 19 38
e 19 37
e 19 32
e 19 30
e 19 25
e 19 24
e 19 22
e 19 21
e 20 60
e 20 59
e 20 54
e 20 53
e 20 52
e 20 40
e 20 38
e 20 33
e 20 27
e 20 26
e 21 60
e 21 49
e 21 36
e 21 29
e 22 57
e 22 46
e 22 44
e 22 40
e 22 33
e 22 31
e 22 28
e 22 23
e 23 60
e 23 59
e 23 50
e 23 38
e 23 36
e 23 34
e 23 33
e 23 29
e 23 28
e 24 60
e 24 59
e 24 50
e 24 33
e 25 59
e 25 56
e 25 54
e 25 49
e 25 43
e 25 42
e 25 38
e 25 35
e 25 33
e 26 56
e 26 51
e 26 49
e 26 47
e 26 46
e 26 38
e 26 35
e 26 34
e 26 31
e 26 30
e 26 29
e 27 53
e 27 44
e 27 39
e 27 38
e 27 37
e 27 32
e 27 28
e 28 51
e 28 46
e 28 45
e 28 44
e 28 43
e 28 42
e 29 50
e 29 48
e 29 47
e 29 45
e 29 42
e 29 37
e 29 35
e 29 33
e 29 32
e 30 57
e 30 44
e 30 43
e 30 40
e 30 32
e 31 60
e 31 51
e 31 48
e 31 46
e 31 38
e 32 55
e 32 44
e 33 56
e 33 55
e 33 47
e 34 55
e 34 52
e 34 47
e 35 55
e 35 54
e 35 43
e 35 39
e 36 58
e 36 56
e 36 48
e 36 38
e 37 55
e 37 49
e 37 41
e 37 39
e 38 56
e 38 54
e 38 47
e 38 44
e 38 41
e 39 56
e 39 52
e 39 40
e 40 54
e 40 53
e 41 51
e 41 49
e 42 58
e 42 57
e 42 54
e 42 53
e 42 50
e 42 48
e 42 45
e 43 56
e 43 51
e 43 50
e 43 49
e 43 44
e 44 58
e 44 57
e 44 56
e 44 54
e 44 50
e 44 47
e 45 60
e 45 59
e 45 56
e 45 54
e 45 51
e 45 48
e 46 54
e 46 53
e 46 51
e 46 47
e 47 54
e 47 49
e 48 59
e 49 59
e 49 58
e 49 54
e 50 53
e 51 60
e 51 59
e 51 58
e 51 54
e 52 60
e 52 56
e 52 54
e 53 56
e 53 55
e 55 58
e 56 58
